(set-info :source |printed by MathSAT|)
(declare-fun |fibo1::n__param__@2| () (_ BitVec 32))
(declare-fun |fibo1::n@2| () (_ BitVec 32))
(declare-fun |fibo2::n__param__@2| () (_ BitVec 32))
(declare-fun |fibo2::n@2| () (_ BitVec 32))
(declare-fun |fibo1::n__param__@3| () (_ BitVec 32))
(declare-fun |fibo2::__retval__@2| () (_ BitVec 32))
(declare-fun |fibo2::n__param__@3| () (_ BitVec 32))
(declare-fun |fibo2::__retval__@3| () (_ BitVec 32))
(declare-fun |fibo1::iVar2@5| () (_ BitVec 32))
(declare-fun |fibo1::__retval__@2| () (_ BitVec 32))
(declare-fun |fibo1::n@3| () (_ BitVec 32))
(declare-fun |fibo2::n@3| () (_ BitVec 32))
(declare-fun |fibo1::n__param__@4| () (_ BitVec 32))
(declare-fun |fibo1::n@4| () (_ BitVec 32))
(declare-fun |fibo2::iVar1@5| () (_ BitVec 32))
(declare-fun |fibo1::__retval__@3| () (_ BitVec 32))
(declare-fun |fibo2::iVar2@6| () (_ BitVec 32))
(declare-fun |fibo2::iVar2@7| () (_ BitVec 32))
(declare-fun |fibo2::__retval__@5| () (_ BitVec 32))
(declare-fun |fibo1::iVar2@8| () (_ BitVec 32))
(declare-fun |fibo2::__retval__@6| () (_ BitVec 32))
(declare-fun |fibo2::iVar2@10| () (_ BitVec 32))
(declare-fun |fibo2::__retval__@8| () (_ BitVec 32))
(declare-fun |fibo1::n__param__@6| () (_ BitVec 32))
(declare-fun |fibo1::n@6| () (_ BitVec 32))
(declare-fun |fibo1::iVar1@9| () (_ BitVec 32))
(declare-fun |fibo2::n__param__@7| () (_ BitVec 32))
(declare-fun |fibo2::n@7| () (_ BitVec 32))
(declare-fun |fibo1::iVar2@12| () (_ BitVec 32))
(declare-fun |fibo1::iVar2@13| () (_ BitVec 32))
(declare-fun |fibo1::__retval__@6| () (_ BitVec 32))
(declare-fun |fibo2::iVar1@11| () (_ BitVec 32))
(declare-fun |fibo1::n__param__@11| () (_ BitVec 32))
(declare-fun |fibo1::n@11| () (_ BitVec 32))
(declare-fun |fibo2::n__param__@10| () (_ BitVec 32))
(declare-fun |fibo2::n@10| () (_ BitVec 32))
(declare-fun |fibo2::iVar2@14| () (_ BitVec 32))
(declare-fun |fibo1::iVar1@14| () (_ BitVec 32))
(declare-fun |fibo2::n__param__@12| () (_ BitVec 32))
(declare-fun |fibo2::n@12| () (_ BitVec 32))
(declare-fun |fibo2::iVar2@17| () (_ BitVec 32))
(declare-fun |fibo1::iVar2@18| () (_ BitVec 32))
(declare-fun |fibo1::iVar2@19| () (_ BitVec 32))
(declare-fun |fibo1::__retval__@9| () (_ BitVec 32))
(declare-fun |fibo2::iVar2@20| () (_ BitVec 32))
(declare-fun |fibo2::iVar2@21| () (_ BitVec 32))
(declare-fun |fibo1::iVar1@18| () (_ BitVec 32))
(declare-fun |fibo2::n__param__@16| () (_ BitVec 32))
(declare-fun |fibo2::n@16| () (_ BitVec 32))
(declare-fun |fibo1::n__param__@16| () (_ BitVec 32))
(declare-fun |fibo1::n@16| () (_ BitVec 32))
(declare-fun |fibo2::n__param__@17| () (_ BitVec 32))
(declare-fun |fibo2::n@17| () (_ BitVec 32))
(declare-fun |fibo2::iVar2@25| () (_ BitVec 32))
(declare-fun |fibo2::__retval__@9| () (_ BitVec 32))
(declare-fun |fibo1::iVar1@21| () (_ BitVec 32))
(declare-fun |fibo2::n__param__@19| () (_ BitVec 32))
(declare-fun |fibo2::n@19| () (_ BitVec 32))
(declare-fun |fibo2::iVar2@28| () (_ BitVec 32))
(declare-fun |fibo2::__retval__@10| () (_ BitVec 32))
(declare-fun |fibo1::iVar2@25| () (_ BitVec 32))
(declare-fun |fibo1::iVar2@26| () (_ BitVec 32))
(declare-fun |fibo1::__retval__@13| () (_ BitVec 32))
(declare-fun |fibo2::iVar1@24| () (_ BitVec 32))
(declare-fun |fibo1::n__param__@20| () (_ BitVec 32))
(declare-fun |fibo1::n@20| () (_ BitVec 32))
(declare-fun |fibo1::iVar2@29| () (_ BitVec 32))
(declare-fun |fibo1::__retval__@14| () (_ BitVec 32))
(declare-fun |fibo2::iVar2@32| () (_ BitVec 32))
(declare-fun |fibo2::iVar2@33| () (_ BitVec 32))
(declare-fun |fibo2::__retval__@13| () (_ BitVec 32))
(declare-fun |fibo1::iVar2@32| () (_ BitVec 32))
(declare-fun |fibo1::iVar2@33| () (_ BitVec 32))
(declare-fun |fibo1::__retval__@16| () (_ BitVec 32))
(declare-fun |main::iVar1@18| () (_ BitVec 32))
(assert (let ((.def_14 (= |fibo1::n__param__@2| |fibo1::n@2|)))(let ((.def_12 (= |fibo1::n__param__@2| (_ bv5 32))))(let ((.def_513 (and .def_12 .def_14)))(let ((.def_16 (bvslt |fibo1::n@2| (_ bv1 32))))(let ((.def_19 (not .def_16)))(let ((.def_514 (and .def_19 .def_513)))(let ((.def_21 (= |fibo1::n@2| (_ bv1 32))))(let ((.def_24 (not .def_21)))(let ((.def_515 (and .def_24 .def_514)))(let ((.def_29 (bvadd (_ bv4294967295 32) |fibo1::n@2|)))(let ((.def_31 (= .def_29 |fibo2::n__param__@2|)))(let ((.def_516 (and .def_31 .def_515)))(let ((.def_33 (= |fibo2::n__param__@2| |fibo2::n@2|)))(let ((.def_517 (and .def_33 .def_516)))(let ((.def_34 (bvslt |fibo2::n@2| (_ bv1 32))))(let ((.def_37 (not .def_34)))(let ((.def_518 (and .def_37 .def_517)))(let ((.def_39 (= |fibo2::n@2| (_ bv1 32))))(let ((.def_42 (not .def_39)))(let ((.def_519 (and .def_42 .def_518)))(let ((.def_46 (bvadd (_ bv4294967295 32) |fibo2::n@2|)))(let ((.def_48 (= .def_46 |fibo1::n__param__@3|)))(let ((.def_520 (and .def_48 .def_519)))(let ((.def_114 (= |fibo1::n__param__@3| |fibo1::n@3|)))(let ((.def_521 (and .def_114 .def_520)))(let ((.def_115 (bvslt |fibo1::n@3| (_ bv1 32))))(let ((.def_117 (not .def_115)))(let ((.def_522 (and .def_117 .def_521)))(let ((.def_119 (= |fibo1::n@3| (_ bv1 32))))(let ((.def_121 (not .def_119)))(let ((.def_523 (and .def_121 .def_522)))(let ((.def_125 (bvadd (_ bv4294967295 32) |fibo1::n@3|)))(let ((.def_126 (= |fibo2::n__param__@3| .def_125)))(let ((.def_524 (and .def_126 .def_523)))(let ((.def_128 (= |fibo2::n__param__@3| |fibo2::n@3|)))(let ((.def_525 (and .def_128 .def_524)))(let ((.def_129 (bvslt |fibo2::n@3| (_ bv1 32))))(let ((.def_131 (not .def_129)))(let ((.def_526 (and .def_131 .def_525)))(let ((.def_133 (= |fibo2::n@3| (_ bv1 32))))(let ((.def_135 (not .def_133)))(let ((.def_527 (and .def_135 .def_526)))(let ((.def_139 (bvadd (_ bv4294967295 32) |fibo2::n@3|)))(let ((.def_141 (= .def_139 |fibo1::n__param__@4|)))(let ((.def_528 (and .def_141 .def_527)))(let ((.def_143 (= |fibo1::n__param__@4| |fibo1::n@4|)))(let ((.def_529 (and .def_143 .def_528)))(let ((.def_144 (bvslt |fibo1::n@4| (_ bv1 32))))(let ((.def_146 (not .def_144)))(let ((.def_530 (and .def_146 .def_529)))(let ((.def_148 (= |fibo1::n@4| (_ bv1 32))))(let ((.def_531 (and .def_148 .def_530)))(let ((.def_151 (= |fibo1::iVar2@5| (_ bv1 32))))(let ((.def_532 (and .def_151 .def_531)))(let ((.def_153 (= |fibo1::iVar2@5| |fibo1::__retval__@2|)))(let ((.def_533 (and .def_153 .def_532)))(let ((.def_156 (= |fibo1::__retval__@2| |fibo2::iVar1@5|)))(let ((.def_534 (and .def_156 .def_533)))(let ((.def_159 (bvadd (_ bv4294967294 32) |fibo2::n@3|)))(let ((.def_289 (= .def_159 |fibo1::n__param__@6|)))(let ((.def_535 (and .def_289 .def_534)))(let ((.def_291 (= |fibo1::n__param__@6| |fibo1::n@6|)))(let ((.def_536 (and .def_291 .def_535)))(let ((.def_292 (bvslt |fibo1::n@6| (_ bv1 32))))(let ((.def_537 (and .def_292 .def_536)))(let ((.def_295 (= |fibo1::iVar2@8| (_ bv0 32))))(let ((.def_538 (and .def_295 .def_537)))(let ((.def_297 (= |fibo1::__retval__@3| |fibo1::iVar2@8|)))(let ((.def_539 (and .def_297 .def_538)))(let ((.def_173 (= |fibo1::__retval__@3| |fibo2::iVar2@6|)))(let ((.def_540 (and .def_173 .def_539)))(let ((.def_175 (bvadd |fibo2::iVar1@5| |fibo2::iVar2@6|)))(let ((.def_177 (= .def_175 |fibo2::iVar2@7|)))(let ((.def_541 (and .def_177 .def_540)))(let ((.def_178 (= |fibo2::__retval__@2| |fibo2::iVar2@7|)))(let ((.def_542 (and .def_178 .def_541)))(let ((.def_300 (= |fibo2::__retval__@2| |fibo1::iVar1@9|)))(let ((.def_543 (and .def_300 .def_542)))(let ((.def_184 (bvadd (_ bv4294967294 32) |fibo1::n@3|)))(let ((.def_302 (= .def_184 |fibo2::n__param__@7|)))(let ((.def_544 (and .def_302 .def_543)))(let ((.def_304 (= |fibo2::n__param__@7| |fibo2::n@7|)))(let ((.def_545 (and .def_304 .def_544)))(let ((.def_305 (bvslt |fibo2::n@7| (_ bv1 32))))(let ((.def_307 (not .def_305)))(let ((.def_546 (and .def_307 .def_545)))(let ((.def_309 (= |fibo2::n@7| (_ bv1 32))))(let ((.def_547 (and .def_309 .def_546)))(let ((.def_312 (= |fibo2::iVar2@10| (_ bv1 32))))(let ((.def_548 (and .def_312 .def_547)))(let ((.def_314 (= |fibo2::__retval__@3| |fibo2::iVar2@10|)))(let ((.def_549 (and .def_314 .def_548)))(let ((.def_317 (= |fibo2::__retval__@3| |fibo1::iVar2@12|)))(let ((.def_550 (and .def_317 .def_549)))(let ((.def_319 (bvadd |fibo1::iVar1@9| |fibo1::iVar2@12|)))(let ((.def_321 (= .def_319 |fibo1::iVar2@13|)))(let ((.def_551 (and .def_321 .def_550)))(let ((.def_323 (= |fibo1::iVar2@13| |fibo1::__retval__@6|)))(let ((.def_552 (and .def_323 .def_551)))(let ((.def_326 (= |fibo1::__retval__@6| |fibo2::iVar1@11|)))(let ((.def_553 (and .def_326 .def_552)))(let ((.def_212 (bvadd (_ bv4294967294 32) |fibo2::n@2|)))(let ((.def_328 (= .def_212 |fibo1::n__param__@11|)))(let ((.def_554 (and .def_328 .def_553)))(let ((.def_330 (= |fibo1::n__param__@11| |fibo1::n@11|)))(let ((.def_555 (and .def_330 .def_554)))(let ((.def_331 (bvslt |fibo1::n@11| (_ bv1 32))))(let ((.def_333 (not .def_331)))(let ((.def_556 (and .def_333 .def_555)))(let ((.def_335 (= |fibo1::n@11| (_ bv1 32))))(let ((.def_337 (not .def_335)))(let ((.def_557 (and .def_337 .def_556)))(let ((.def_341 (bvadd (_ bv4294967295 32) |fibo1::n@11|)))(let ((.def_343 (= .def_341 |fibo2::n__param__@10|)))(let ((.def_558 (and .def_343 .def_557)))(let ((.def_345 (= |fibo2::n__param__@10| |fibo2::n@10|)))(let ((.def_559 (and .def_345 .def_558)))(let ((.def_346 (bvslt |fibo2::n@10| (_ bv1 32))))(let ((.def_348 (not .def_346)))(let ((.def_560 (and .def_348 .def_559)))(let ((.def_350 (= |fibo2::n@10| (_ bv1 32))))(let ((.def_561 (and .def_350 .def_560)))(let ((.def_354 (= |fibo2::iVar2@14| (_ bv1 32))))(let ((.def_562 (and .def_354 .def_561)))(let ((.def_356 (= |fibo2::__retval__@5| |fibo2::iVar2@14|)))(let ((.def_563 (and .def_356 .def_562)))(let ((.def_359 (= |fibo2::__retval__@5| |fibo1::iVar1@14|)))(let ((.def_564 (and .def_359 .def_563)))(let ((.def_362 (bvadd (_ bv4294967294 32) |fibo1::n@11|)))(let ((.def_364 (= .def_362 |fibo2::n__param__@12|)))(let ((.def_565 (and .def_364 .def_564)))(let ((.def_366 (= |fibo2::n__param__@12| |fibo2::n@12|)))(let ((.def_566 (and .def_366 .def_565)))(let ((.def_367 (bvslt |fibo2::n@12| (_ bv1 32))))(let ((.def_567 (and .def_367 .def_566)))(let ((.def_371 (= |fibo2::iVar2@17| (_ bv0 32))))(let ((.def_568 (and .def_371 .def_567)))(let ((.def_373 (= |fibo2::__retval__@6| |fibo2::iVar2@17|)))(let ((.def_569 (and .def_373 .def_568)))(let ((.def_376 (= |fibo2::__retval__@6| |fibo1::iVar2@18|)))(let ((.def_570 (and .def_376 .def_569)))(let ((.def_378 (bvadd |fibo1::iVar1@14| |fibo1::iVar2@18|)))(let ((.def_380 (= .def_378 |fibo1::iVar2@19|)))(let ((.def_571 (and .def_380 .def_570)))(let ((.def_382 (= |fibo1::iVar2@19| |fibo1::__retval__@9|)))(let ((.def_572 (and .def_382 .def_571)))(let ((.def_385 (= |fibo1::__retval__@9| |fibo2::iVar2@20|)))(let ((.def_573 (and .def_385 .def_572)))(let ((.def_387 (bvadd |fibo2::iVar1@11| |fibo2::iVar2@20|)))(let ((.def_389 (= .def_387 |fibo2::iVar2@21|)))(let ((.def_574 (and .def_389 .def_573)))(let ((.def_390 (= |fibo2::__retval__@8| |fibo2::iVar2@21|)))(let ((.def_575 (and .def_390 .def_574)))(let ((.def_393 (= |fibo2::__retval__@8| |fibo1::iVar1@18|)))(let ((.def_576 (and .def_393 .def_575)))(let ((.def_64 (bvadd (_ bv4294967294 32) |fibo1::n@2|)))(let ((.def_395 (= .def_64 |fibo2::n__param__@16|)))(let ((.def_577 (and .def_395 .def_576)))(let ((.def_397 (= |fibo2::n__param__@16| |fibo2::n@16|)))(let ((.def_578 (and .def_397 .def_577)))(let ((.def_398 (bvslt |fibo2::n@16| (_ bv1 32))))(let ((.def_400 (not .def_398)))(let ((.def_579 (and .def_400 .def_578)))(let ((.def_402 (= |fibo2::n@16| (_ bv1 32))))(let ((.def_404 (not .def_402)))(let ((.def_580 (and .def_404 .def_579)))(let ((.def_408 (bvadd (_ bv4294967295 32) |fibo2::n@16|)))(let ((.def_410 (= .def_408 |fibo1::n__param__@16|)))(let ((.def_581 (and .def_410 .def_580)))(let ((.def_412 (= |fibo1::n__param__@16| |fibo1::n@16|)))(let ((.def_582 (and .def_412 .def_581)))(let ((.def_413 (bvslt |fibo1::n@16| (_ bv1 32))))(let ((.def_415 (not .def_413)))(let ((.def_583 (and .def_415 .def_582)))(let ((.def_417 (= |fibo1::n@16| (_ bv1 32))))(let ((.def_419 (not .def_417)))(let ((.def_584 (and .def_419 .def_583)))(let ((.def_423 (bvadd (_ bv4294967295 32) |fibo1::n@16|)))(let ((.def_425 (= .def_423 |fibo2::n__param__@17|)))(let ((.def_585 (and .def_425 .def_584)))(let ((.def_427 (= |fibo2::n__param__@17| |fibo2::n@17|)))(let ((.def_586 (and .def_427 .def_585)))(let ((.def_428 (bvslt |fibo2::n@17| (_ bv1 32))))(let ((.def_430 (not .def_428)))(let ((.def_587 (and .def_430 .def_586)))(let ((.def_432 (= |fibo2::n@17| (_ bv1 32))))(let ((.def_588 (and .def_432 .def_587)))(let ((.def_436 (= |fibo2::iVar2@25| (_ bv1 32))))(let ((.def_589 (and .def_436 .def_588)))(let ((.def_439 (= |fibo2::iVar2@25| |fibo2::__retval__@9|)))(let ((.def_590 (and .def_439 .def_589)))(let ((.def_442 (= |fibo2::__retval__@9| |fibo1::iVar1@21|)))(let ((.def_591 (and .def_442 .def_590)))(let ((.def_445 (bvadd (_ bv4294967294 32) |fibo1::n@16|)))(let ((.def_447 (= .def_445 |fibo2::n__param__@19|)))(let ((.def_592 (and .def_447 .def_591)))(let ((.def_449 (= |fibo2::n__param__@19| |fibo2::n@19|)))(let ((.def_593 (and .def_449 .def_592)))(let ((.def_450 (bvslt |fibo2::n@19| (_ bv1 32))))(let ((.def_594 (and .def_450 .def_593)))(let ((.def_454 (= |fibo2::iVar2@28| (_ bv0 32))))(let ((.def_595 (and .def_454 .def_594)))(let ((.def_457 (= |fibo2::iVar2@28| |fibo2::__retval__@10|)))(let ((.def_596 (and .def_457 .def_595)))(let ((.def_460 (= |fibo2::__retval__@10| |fibo1::iVar2@25|)))(let ((.def_597 (and .def_460 .def_596)))(let ((.def_462 (bvadd |fibo1::iVar1@21| |fibo1::iVar2@25|)))(let ((.def_464 (= .def_462 |fibo1::iVar2@26|)))(let ((.def_598 (and .def_464 .def_597)))(let ((.def_466 (= |fibo1::iVar2@26| |fibo1::__retval__@13|)))(let ((.def_599 (and .def_466 .def_598)))(let ((.def_469 (= |fibo1::__retval__@13| |fibo2::iVar1@24|)))(let ((.def_600 (and .def_469 .def_599)))(let ((.def_472 (bvadd (_ bv4294967294 32) |fibo2::n@16|)))(let ((.def_474 (= .def_472 |fibo1::n__param__@20|)))(let ((.def_601 (and .def_474 .def_600)))(let ((.def_476 (= |fibo1::n__param__@20| |fibo1::n@20|)))(let ((.def_602 (and .def_476 .def_601)))(let ((.def_477 (bvslt |fibo1::n@20| (_ bv1 32))))(let ((.def_479 (not .def_477)))(let ((.def_603 (and .def_479 .def_602)))(let ((.def_481 (= |fibo1::n@20| (_ bv1 32))))(let ((.def_604 (and .def_481 .def_603)))(let ((.def_485 (= |fibo1::iVar2@29| (_ bv1 32))))(let ((.def_605 (and .def_485 .def_604)))(let ((.def_488 (= |fibo1::iVar2@29| |fibo1::__retval__@14|)))(let ((.def_606 (and .def_488 .def_605)))(let ((.def_491 (= |fibo1::__retval__@14| |fibo2::iVar2@32|)))(let ((.def_607 (and .def_491 .def_606)))(let ((.def_493 (bvadd |fibo2::iVar1@24| |fibo2::iVar2@32|)))(let ((.def_495 (= .def_493 |fibo2::iVar2@33|)))(let ((.def_608 (and .def_495 .def_607)))(let ((.def_497 (= |fibo2::iVar2@33| |fibo2::__retval__@13|)))(let ((.def_609 (and .def_497 .def_608)))(let ((.def_500 (= |fibo2::__retval__@13| |fibo1::iVar2@32|)))(let ((.def_610 (and .def_500 .def_609)))(let ((.def_502 (bvadd |fibo1::iVar1@18| |fibo1::iVar2@32|)))(let ((.def_504 (= .def_502 |fibo1::iVar2@33|)))(let ((.def_611 (and .def_504 .def_610)))(let ((.def_506 (= |fibo1::iVar2@33| |fibo1::__retval__@16|)))(let ((.def_612 (and .def_506 .def_611)))(let ((.def_509 (= |fibo1::__retval__@16| |main::iVar1@18|)))(let ((.def_613 (and .def_509 .def_612)))(let ((.def_510 (= |main::iVar1@18| (_ bv5 32))))(let ((.def_614 (and .def_510 .def_613))).def_614))))))))))))))))))))))))))))))))))))))))))))))))))))))))))))))))))))))))))))))))))))))))))))))))))))))))))))))))))))))))))))))))))))))))))))))))))))))))))))))))))))))))))))))))))))))))))))))))))))))))))))))))))))))))))))))))))))))))))))))))))))))